language ESSENCE' 1.0

letting jobs = 102
letting horizon = 807
letting resourcesRenew = 2
letting resourcesNonrenew = 2
letting resourceLimits = [56, 76, 549, 585]
letting successors = [[2, 3, 4, 5, 6, 7, 8, 9, 10, 11, 12, 13, 14, 16, 17, 18, 19, 20, 21, 22, 23, 24, 27, 28, 29, 30, 32, 33, 37, 50], [100, 99, 97, 96, 94, 68, 66, 55, 53, 52, 51, 49, 46, 45, 44, 42, 35, 31, 26], [95, 64, 61, 56, 54, 53, 48, 45, 43, 39, 25, 15], [100, 98, 96, 94, 70, 69, 67, 65, 64, 62, 61, 56, 55, 54, 53, 44, 42, 38, 34], [99, 98, 97, 94, 89, 85, 81, 79, 69, 68, 67, 66, 65, 64, 63, 58, 57, 56, 52, 51, 48, 44, 40], [101, 100, 99, 97, 94, 91, 88, 67, 66, 65, 64, 61, 59, 56, 55, 52, 51, 48, 47, 41], [100, 99, 97, 96, 95, 94, 91, 90, 89, 88, 87, 86, 71, 70, 68, 67, 65, 64, 61, 59, 54, 46, 39], [100, 99, 94, 92, 89, 82, 69, 68, 66, 65, 62, 61, 60, 59, 53, 52, 42, 41], [99, 98, 94, 92, 91, 90, 88, 67, 64, 61, 57, 55, 53, 52, 49, 42, 34], [101, 99, 98, 97, 96, 94, 93, 92, 87, 86, 85, 84, 83, 82, 79, 77, 69, 67, 66, 65, 62, 59, 55, 52, 44], [100, 97, 95, 94, 89, 85, 81, 77, 71, 70, 69, 67, 65, 64, 63, 62, 56, 54, 53, 52, 41], [100, 96, 94, 93, 91, 90, 89, 87, 81, 68, 67, 64, 53, 51, 39, 36], [100, 97, 95, 94, 92, 87, 65, 64, 59, 53, 44, 25], [100, 98, 94, 90, 87, 65, 61, 59, 58, 55, 54, 25], [100, 98, 96, 94, 93, 92, 89, 86, 85, 84, 82, 69, 68, 67, 66, 62, 52, 44, 35], [100, 95, 92, 91, 86, 85, 84, 69, 66, 64, 55, 52, 48, 41, 35], [100, 99, 98, 94, 93, 92, 90, 89, 85, 81, 77, 67, 64, 63, 58, 54, 40], [99, 96, 95, 92, 90, 89, 87, 86, 84, 83, 81, 80, 76, 68, 67, 66, 64, 63, 61, 58, 54], [99, 98, 97, 93, 92, 88, 87, 84, 81, 80, 78, 77, 66, 64, 63, 61, 55, 54, 44], [98, 97, 95, 94, 92, 91, 90, 89, 87, 85, 79, 72, 70, 68, 65, 62, 53, 48], [96, 95, 94, 93, 84, 80, 75, 67, 61, 60, 53, 35], [100, 99, 98, 94, 92, 87, 86, 85, 82, 81, 80, 79, 77, 67, 66, 64, 62, 57, 44], [97, 95, 94, 93, 92, 89, 88, 86, 84, 81, 80, 79, 76, 75, 73, 68, 67, 65, 64, 63, 61], [99, 93, 86, 85, 84, 75, 66, 64, 54, 35], [99, 96, 93, 89, 88, 86, 84, 83, 82, 81, 79, 76, 68, 67, 66, 63, 52], [92, 91, 89, 88, 87, 86, 84, 83, 81, 79, 72, 69, 65, 63, 61, 48], [93, 91, 89, 87, 86, 84, 83, 82, 81, 75, 66, 64, 61, 57, 56], [98, 94, 93, 90, 89, 88, 87, 85, 84, 82, 80, 79, 78, 77, 75, 73, 57], [97, 92, 90, 88, 86, 85, 83, 81, 80, 77, 67, 57, 54], [95, 92, 90, 88, 84, 82, 81, 79, 77, 76, 75, 65, 64, 63, 61], [93, 91, 90, 87, 86, 83, 81, 78, 76, 75, 64, 63, 61, 56], [98, 97, 96, 95, 94, 89, 86, 85, 83, 82, 79, 78, 76, 75, 66, 63], [98, 92, 91, 90, 89, 86, 85, 81, 79, 78, 77, 76, 75, 74, 73, 72], [97, 93, 83, 82, 80, 79, 76, 68, 66, 59], [88, 87, 83, 79, 77, 76, 73, 72, 65, 59], [98, 97, 95, 88, 85, 84, 80, 76, 75, 73, 72, 65], [94, 87, 85, 84, 83, 82, 81, 77, 76, 75, 74, 73], [95, 92, 87, 81, 79, 77, 76, 72, 52], [92, 84, 82, 79, 77, 76, 66, 52], [96, 88, 87, 86, 83, 80, 75, 74, 73, 70], [96, 93, 90, 87, 83, 80, 79, 78, 75], [95, 87, 86, 85, 84, 79, 74, 72], [92, 81, 78, 77, 75, 74, 73, 72], [91, 90, 76, 75, 74, 73, 72], [98, 91, 80, 79, 75, 73, 72], [83, 82, 81, 77, 76, 75, 72], [86, 84, 82, 79, 75, 74, 73], [82, 80, 77, 75, 74, 73], [83, 77, 73, 72, 63], [82, 80, 77, 72, 65], [95, 74, 73, 72], [80, 75, 73], [86, 83, 76], [82, 79, 73], [89, 76, 72], [80, 73, 72], [76, 74, 72], [91, 75, 73], [81, 63], [97, 64], [85, 74], [88, 78], [74], [72], [78], [72], [78], [77], [78], [84], [83], [102], [102], [102], [102], [102], [102], [102], [102], [102], [102], [102], [102], [102], [102], [102], [102], [102], [102], [102], [102], [102], [102], [102], [102], [102], [102], [102], [102], [102], [102], []]
letting durations = [[0], [2, 9, 10], [3, 5, 8], [7, 8, 9], [5, 9, 10], [3, 4, 5], [2, 3, 10], [2, 6, 9], [1, 4, 8], [3, 8, 9], [6, 7, 10], [3, 5, 6], [1, 4, 8], [1, 7, 9], [8, 9, 10], [3, 5, 8], [5, 7, 9], [3, 9, 10], [6, 7, 8], [2, 7, 8], [3, 4, 5], [4, 5, 7], [3, 9, 10], [4, 7, 8], [1, 3, 5], [6, 7, 8], [1, 3, 5], [1, 2, 6], [2, 5, 6], [5, 7, 10], [3, 6, 7], [5, 6, 10], [3, 5, 6], [6, 7, 10], [3, 8, 10], [1, 4, 8], [2, 3, 7], [1, 4, 5], [3, 9, 10], [1, 3, 9], [7, 8, 9], [1, 7, 8], [1, 5, 9], [2, 3, 10], [5, 9, 10], [4, 5, 9], [4, 6, 9], [3, 9, 10], [1, 4, 8], [3, 9, 10], [3, 6, 7], [3, 5, 8], [4, 5, 8], [1, 5, 10], [4, 7, 8], [5, 7, 8], [2, 3, 9], [1, 5, 10], [5, 8, 9], [2, 8, 9], [3, 6, 10], [1, 2, 9], [4, 8, 10], [2, 8, 9], [1, 5, 9], [2, 5, 8], [2, 6, 8], [2, 3, 4], [1, 3, 4], [2, 8, 10], [2, 5, 6], [5, 6, 7], [4, 6, 7], [5, 6, 9], [2, 3, 9], [8, 9, 10], [1, 2, 3], [6, 9, 10], [1, 4, 8], [6, 7, 8], [3, 5, 6], [2, 7, 8], [1, 4, 5], [2, 4, 9], [1, 4, 5], [3, 4, 5], [1, 5, 6], [3, 4, 8], [2, 3, 7], [4, 6, 10], [2, 5, 8], [1, 2, 7], [1, 7, 8], [3, 6, 8], [1, 2, 3], [3, 4, 6], [1, 5, 9], [7, 8, 10], [2, 4, 9], [2, 3, 9], [7, 8, 9], [0]]
letting resourceUsage = [[[0, 0, 0, 0]], [[3, 2, 6, 8], [3, 1, 5, 7], [3, 1, 5, 6]], [[2, 5, 4, 7], [2, 4, 4, 4], [1, 3, 4, 1]], [[2, 5, 4, 4], [2, 4, 2, 3], [2, 4, 2, 2]], [[3, 4, 9, 10], [2, 4, 7, 9], [1, 4, 7, 8]], [[4, 2, 3, 6], [3, 2, 3, 6], [2, 1, 3, 6]], [[4, 1, 6, 6], [4, 1, 6, 4], [4, 1, 4, 3]], [[3, 5, 5, 8], [3, 3, 5, 6], [3, 2, 4, 5]], [[3, 5, 6, 6], [3, 5, 5, 5], [2, 5, 4, 4]], [[2, 2, 6, 9], [2, 2, 6, 8], [2, 2, 6, 7]], [[3, 3, 1, 5], [3, 3, 1, 4], [3, 3, 1, 3]], [[3, 3, 2, 9], [1, 3, 2, 8], [1, 3, 2, 7]], [[4, 3, 3, 2], [3, 1, 3, 1], [3, 1, 1, 1]], [[1, 4, 3, 8], [1, 2, 2, 7], [1, 1, 2, 7]], [[3, 3, 9, 10], [3, 2, 6, 9], [3, 2, 4, 9]], [[2, 4, 9, 4], [2, 4, 9, 3], [2, 4, 8, 3]], [[3, 3, 9, 6], [2, 3, 7, 5], [1, 3, 7, 5]], [[1, 3, 2, 8], [1, 3, 2, 7], [1, 2, 2, 7]], [[3, 3, 10, 8], [3, 2, 8, 7], [2, 1, 8, 6]], [[2, 3, 10, 6], [2, 2, 7, 6], [2, 2, 7, 5]], [[1, 2, 2, 7], [1, 2, 2, 6], [1, 2, 2, 5]], [[2, 5, 5, 5], [2, 3, 4, 2], [2, 3, 4, 1]], [[1, 4, 8, 6], [1, 3, 8, 5], [1, 1, 8, 4]], [[3, 4, 6, 3], [2, 3, 2, 3], [2, 3, 1, 2]], [[3, 5, 6, 8], [3, 3, 5, 8], [3, 3, 4, 7]], [[4, 2, 5, 9], [4, 2, 5, 8], [4, 2, 5, 7]], [[1, 3, 4, 9], [1, 3, 4, 5], [1, 3, 4, 3]], [[4, 5, 8, 10], [3, 4, 4, 8], [3, 4, 3, 8]], [[1, 4, 3, 2], [1, 3, 3, 1], [1, 2, 3, 1]], [[2, 4, 8, 8], [1, 4, 5, 6], [1, 4, 4, 6]], [[5, 2, 6, 2], [4, 1, 4, 1], [4, 1, 3, 1]], [[3, 3, 8, 8], [3, 2, 8, 7], [1, 1, 7, 5]], [[4, 3, 5, 4], [4, 2, 5, 3], [3, 2, 3, 3]], [[4, 4, 3, 4], [2, 3, 2, 4], [1, 3, 2, 4]], [[2, 4, 4, 7], [1, 3, 3, 4], [1, 2, 1, 4]], [[1, 5, 3, 5], [1, 2, 1, 3], [1, 2, 1, 2]], [[3, 1, 4, 6], [2, 1, 3, 5], [1, 1, 1, 5]], [[4, 2, 2, 8], [4, 1, 1, 7], [4, 1, 1, 6]], [[4, 2, 10, 10], [4, 2, 7, 10], [4, 2, 2, 10]], [[3, 3, 5, 3], [3, 2, 4, 3], [3, 2, 4, 2]], [[3, 5, 3, 9], [3, 5, 3, 6], [3, 5, 2, 4]], [[4, 3, 8, 5], [3, 3, 8, 4], [3, 3, 8, 3]], [[4, 3, 9, 10], [3, 2, 4, 9], [2, 2, 2, 9]], [[3, 4, 1, 6], [1, 3, 1, 5], [1, 3, 1, 2]], [[3, 1, 6, 7], [2, 1, 6, 5], [2, 1, 5, 3]], [[2, 5, 5, 4], [1, 3, 5, 3], [1, 3, 5, 2]], [[5, 2, 4, 6], [2, 1, 4, 6], [1, 1, 4, 4]], [[4, 4, 8, 5], [3, 4, 8, 5], [1, 4, 7, 3]], [[3, 3, 9, 5], [3, 3, 8, 2], [3, 3, 6, 2]], [[1, 2, 6, 3], [1, 1, 4, 3], [1, 1, 4, 2]], [[4, 4, 4, 7], [4, 3, 4, 7], [4, 3, 2, 7]], [[4, 5, 8, 5], [4, 4, 7, 5], [4, 3, 7, 3]], [[5, 5, 9, 8], [4, 2, 7, 5], [4, 2, 5, 5]], [[3, 5, 7, 3], [1, 4, 5, 3], [1, 3, 5, 3]], [[4, 1, 10, 6], [4, 1, 9, 4], [4, 1, 8, 4]], [[2, 3, 7, 6], [1, 2, 7, 5], [1, 2, 7, 4]], [[4, 5, 8, 6], [3, 3, 4, 5], [3, 2, 2, 5]], [[3, 4, 5, 5], [2, 3, 3, 4], [2, 1, 2, 4]], [[4, 5, 4, 4], [4, 2, 3, 3], [4, 2, 3, 2]], [[2, 5, 4, 6], [1, 5, 3, 5], [1, 5, 2, 5]], [[4, 2, 4, 5], [3, 2, 3, 4], [1, 2, 1, 3]], [[5, 3, 1, 9], [5, 2, 1, 7], [5, 2, 1, 4]], [[2, 5, 9, 10], [1, 3, 9, 4], [1, 2, 9, 2]], [[2, 3, 2, 6], [2, 2, 1, 6], [2, 1, 1, 6]], [[3, 5, 8, 9], [3, 4, 7, 8], [3, 4, 5, 7]], [[3, 4, 5, 7], [3, 4, 3, 6], [2, 3, 2, 5]], [[1, 3, 7, 7], [1, 1, 5, 6], [1, 1, 5, 5]], [[3, 4, 6, 5], [3, 4, 6, 4], [3, 4, 6, 3]], [[3, 2, 9, 9], [3, 1, 7, 4], [3, 1, 5, 2]], [[2, 5, 10, 6], [1, 3, 6, 5], [1, 2, 5, 3]], [[3, 3, 6, 4], [2, 3, 6, 3], [2, 1, 4, 2]], [[3, 2, 7, 6], [3, 1, 6, 3], [3, 1, 5, 1]], [[3, 4, 3, 6], [3, 3, 2, 4], [1, 3, 2, 2]], [[1, 1, 8, 2], [1, 1, 6, 2], [1, 1, 5, 1]], [[2, 1, 10, 8], [2, 1, 9, 6], [2, 1, 8, 5]], [[5, 2, 8, 7], [5, 1, 8, 7], [5, 1, 8, 5]], [[4, 4, 9, 6], [3, 4, 7, 6], [1, 4, 6, 5]], [[5, 3, 5, 7], [4, 3, 2, 7], [4, 3, 2, 6]], [[3, 5, 1, 9], [3, 4, 1, 7], [2, 3, 1, 2]], [[2, 4, 3, 8], [2, 3, 2, 7], [2, 2, 1, 7]], [[5, 4, 8, 10], [5, 3, 5, 9], [5, 2, 5, 9]], [[3, 4, 4, 4], [2, 2, 4, 4], [2, 2, 1, 1]], [[1, 4, 3, 7], [1, 3, 2, 7], [1, 3, 2, 5]], [[1, 5, 9, 4], [1, 4, 8, 3], [1, 3, 4, 1]], [[3, 3, 5, 4], [3, 3, 4, 3], [3, 2, 3, 3]], [[5, 2, 6, 3], [5, 2, 4, 3], [5, 2, 4, 2]], [[4, 3, 10, 9], [3, 3, 9, 8], [1, 3, 8, 5]], [[3, 4, 8, 3], [3, 4, 6, 2], [1, 4, 5, 1]], [[5, 5, 8, 7], [3, 5, 7, 6], [2, 5, 7, 5]], [[3, 5, 8, 3], [2, 4, 7, 2], [2, 3, 7, 2]], [[2, 3, 5, 7], [1, 2, 4, 7], [1, 2, 4, 5]], [[3, 4, 10, 6], [2, 2, 5, 5], [1, 1, 3, 4]], [[2, 4, 10, 8], [2, 3, 10, 6], [2, 2, 10, 2]], [[3, 2, 3, 2], [2, 2, 3, 2], [2, 2, 2, 2]], [[5, 2, 9, 4], [4, 1, 7, 2], [3, 1, 5, 1]], [[4, 4, 8, 8], [3, 3, 7, 7], [2, 3, 7, 7]], [[5, 2, 5, 8], [4, 2, 4, 4], [4, 2, 3, 4]], [[4, 3, 7, 10], [4, 2, 6, 10], [4, 2, 5, 10]], [[4, 4, 3, 7], [4, 4, 2, 7], [4, 4, 1, 6]], [[4, 5, 6, 9], [2, 3, 5, 5], [1, 3, 2, 4]], [[4, 5, 4, 9], [3, 4, 4, 4], [2, 4, 4, 2]], [[0, 0, 0, 0]]]
